logs/miss/max/miss-07-30-1.sol
# Objective value = 14
x0,1_3 0
x0,1_8 1
x0,1_9 0
x0,1_13 0
x0,1_14 0
x0,1_18 0
x0,1_30 0
x0,1_31 0
x0,1_40 0
x0,1_45 0
x0,1_58 0
x0,1_59 0
x0,1_62 0
x0,1_67 0
x0,2_3 0
x0,2_8 0
x0,2_9 1
x0,2_13 0
x0,2_14 0
x0,2_18 0
x0,2_30 0
x0,2_31 0
x0,2_40 0
x0,2_45 0
x0,2_58 0
x0,2_59 0
x0,2_62 0
x0,2_67 0
x0,3_3 0
x0,3_8 0
x0,3_9 0
x0,3_13 0
x0,3_14 0
x0,3_18 0
x0,3_30 0
x0,3_31 0
x0,3_40 0
x0,3_45 0
x0,3_58 0
x0,3_59 0
x0,3_62 0
x0,3_67 0
x0,4_3 0
x0,4_8 0
x0,4_9 0
x0,4_13 0
x0,4_14 0
x0,4_18 0
x0,4_30 0
x0,4_31 0
x0,4_40 1
x0,4_45 0
x0,4_58 0
x0,4_59 0
x0,4_62 0
x0,4_67 0
x0,5_3 0
x0,5_8 0
x0,5_9 0
x0,5_13 0
x0,5_14 0
x0,5_18 0
x0,5_30 0
x0,5_31 0
x0,5_40 0
x0,5_45 0
x0,5_58 0
x0,5_59 0
x0,5_62 0
x0,5_67 1
x0,6_3 0
x0,6_8 0
x0,6_9 0
x0,6_13 0
x0,6_14 0
x0,6_18 0
x0,6_30 0
x0,6_31 0
x0,6_40 0
x0,6_45 0
x0,6_58 0
x0,6_59 0
x0,6_62 0
x0,6_67 0
x1,2_3 0
x1,2_8 0
x1,2_9 0
x1,2_13 0
x1,2_14 0
x1,2_18 0
x1,2_30 0
x1,2_31 0
x1,2_40 0
x1,2_45 0
x1,2_58 0
x1,2_59 0
x1,2_62 0
x1,2_67 0
x1,3_3 0
x1,3_8 0
x1,3_9 0
x1,3_13 0
x1,3_14 1
x1,3_18 0
x1,3_30 0
x1,3_31 0
x1,3_40 0
x1,3_45 0
x1,3_58 0
x1,3_59 0
x1,3_62 0
x1,3_67 0
x1,4_3 0
x1,4_8 0
x1,4_9 0
x1,4_13 0
x1,4_14 0
x1,4_18 0
x1,4_30 0
x1,4_31 0
x1,4_40 0
x1,4_45 0
x1,4_58 0
x1,4_59 0
x1,4_62 0
x1,4_67 0
x1,5_3 0
x1,5_8 0
x1,5_9 0
x1,5_13 0
x1,5_14 0
x1,5_18 0
x1,5_30 0
x1,5_31 0
x1,5_40 0
x1,5_45 0
x1,5_58 0
x1,5_59 1
x1,5_62 0
x1,5_67 0
x1,6_3 0
x1,6_8 0
x1,6_9 0
x1,6_13 0
x1,6_14 0
x1,6_18 0
x1,6_30 0
x1,6_31 0
x1,6_40 0
x1,6_45 0
x1,6_58 0
x1,6_59 0
x1,6_62 1
x1,6_67 0
x2,3_3 0
x2,3_8 0
x2,3_9 0
x2,3_13 1
x2,3_14 0
x2,3_18 0
x2,3_30 0
x2,3_31 0
x2,3_40 0
x2,3_45 0
x2,3_58 0
x2,3_59 0
x2,3_62 0
x2,3_67 0
x2,4_3 0
x2,4_8 0
x2,4_9 0
x2,4_13 0
x2,4_14 0
x2,4_18 0
x2,4_30 0
x2,4_31 1
x2,4_40 0
x2,4_45 0
x2,4_58 0
x2,4_59 0
x2,4_62 0
x2,4_67 0
x2,5_3 0
x2,5_8 0
x2,5_9 0
x2,5_13 0
x2,5_14 0
x2,5_18 0
x2,5_30 0
x2,5_31 0
x2,5_40 0
x2,5_45 0
x2,5_58 1
x2,5_59 0
x2,5_62 0
x2,5_67 0
x2,6_3 0
x2,6_8 0
x2,6_9 0
x2,6_13 0
x2,6_14 0
x2,6_18 0
x2,6_30 0
x2,6_31 0
x2,6_40 0
x2,6_45 0
x2,6_58 0
x2,6_59 0
x2,6_62 0
x2,6_67 0
x3,4_3 0
x3,4_8 0
x3,4_9 0
x3,4_13 0
x3,4_14 0
x3,4_18 1
x3,4_30 0
x3,4_31 0
x3,4_40 0
x3,4_45 0
x3,4_58 0
x3,4_59 0
x3,4_62 0
x3,4_67 0
x3,5_3 0
x3,5_8 0
x3,5_9 0
x3,5_13 0
x3,5_14 0
x3,5_18 0
x3,5_30 0
x3,5_31 0
x3,5_40 0
x3,5_45 1
x3,5_58 0
x3,5_59 0
x3,5_62 0
x3,5_67 0
x3,6_3 0
x3,6_8 0
x3,6_9 0
x3,6_13 0
x3,6_14 0
x3,6_18 0
x3,6_30 0
x3,6_31 0
x3,6_40 0
x3,6_45 0
x3,6_58 0
x3,6_59 0
x3,6_62 0
x3,6_67 0
x4,5_3 0
x4,5_8 0
x4,5_9 0
x4,5_13 0
x4,5_14 0
x4,5_18 0
x4,5_30 0
x4,5_31 0
x4,5_40 0
x4,5_45 0
x4,5_58 0
x4,5_59 0
x4,5_62 0
x4,5_67 0
x4,6_3 0
x4,6_8 0
x4,6_9 0
x4,6_13 0
x4,6_14 0
x4,6_18 0
x4,6_30 1
x4,6_31 0
x4,6_40 0
x4,6_45 0
x4,6_58 0
x4,6_59 0
x4,6_62 0
x4,6_67 0
x5,6_3 1
x5,6_8 0
x5,6_9 0
x5,6_13 0
x5,6_14 0
x5,6_18 0
x5,6_30 0
x5,6_31 0
x5,6_40 0
x5,6_45 0
x5,6_58 0
x5,6_59 0
x5,6_62 0
x5,6_67 0
p0 14
p1 22
p2 23
p3 36
p4 54
p5 81
p6 84
