logs/miss/max/miss-07-30-1.log

Gurobi 8.1.1 (win64) logging started 11/23/19 13:30:22

Changed value of parameter LogFile to logs/miss/max/miss-07-30-1.log
   Prev: gurobi.log  Default: 
Changed value of parameter LogToConsole to 0
   Prev: 1  Min: 0  Max: 1  Default: 1
Changed value of parameter TimeLimit to 3600.0
   Prev: 1e+100  Min: 0.0  Max: 1e+100  Default: 1e+100
Optimize a model with 1664 rows, 781 columns and 6270 nonzeros
Variable types: 0 continuous, 781 integer (770 binary)
Coefficient statistics:
  Matrix range     [1e+00, 5e+02]
  Objective range  [1e+00, 1e+00]
  Bounds range     [1e+00, 1e+00]
  RHS range        [1e+00, 5e+02]
Found heuristic solution: objective 3.0000000
Presolve time: 0.01s
Presolved: 1664 rows, 781 columns, 6270 nonzeros
Variable types: 0 continuous, 781 integer (770 binary)

Root relaxation: objective 1.400000e+01, 137 iterations, 0.01 seconds

    Nodes    |    Current Node    |     Objective Bounds      |     Work
 Expl Unexpl |  Obj  Depth IntInf | Incumbent    BestBd   Gap | It/Node Time

     0     0   14.00000    0   10    3.00000   14.00000   367%     -    0s
H    0     0                      12.0000000   14.00000  16.7%     -    0s
     0     0   14.00000    0   20   12.00000   14.00000  16.7%     -    0s
H    0     0                      13.0000000   14.00000  7.69%     -    0s
     0     0   14.00000    0   19   13.00000   14.00000  7.69%     -    0s
H    0     0                      14.0000000   14.00000  0.00%     -    0s
     0     0   14.00000    0   28   14.00000   14.00000  0.00%     -    0s

Cutting planes:
  Gomory: 5
  MIR: 12

Explored 1 nodes (625 simplex iterations) in 0.15 seconds
Thread count was 4 (of 4 available processors)

Solution count 4: 14 13 12 3 

Optimal solution found (tolerance 1.00e-04)
Best objective 1.400000000000e+01, best bound 1.400000000000e+01, gap 0.0000%

Gurobi 8.1.1 (win64) logging started 11/23/19 13:30:22

Changed value of parameter LogFile to logs/miss/max/miss-07-30-1.log
   Prev: gurobi.log  Default: 
Changed value of parameter LogToConsole to 0
   Prev: 1  Min: 0  Max: 1  Default: 1
Changed value of parameter TimeLimit to 3600.0
   Prev: 1e+100  Min: 0.0  Max: 1e+100  Default: 1e+100
Optimize a model with 1094 rows, 513 columns and 4104 nonzeros
Variable types: 0 continuous, 513 integer (504 binary)
Coefficient statistics:
  Matrix range     [1e+00, 5e+02]
  Objective range  [1e+00, 1e+00]
  Bounds range     [1e+00, 1e+00]
  RHS range        [1e+00, 5e+02]
Found heuristic solution: objective 2.0000000
Presolve time: 0.01s
Presolved: 1094 rows, 513 columns, 4104 nonzeros
Variable types: 0 continuous, 513 integer (504 binary)

Root relaxation: objective 1.400000e+01, 119 iterations, 0.00 seconds

    Nodes    |    Current Node    |     Objective Bounds      |     Work
 Expl Unexpl |  Obj  Depth IntInf | Incumbent    BestBd   Gap | It/Node Time

H    0     0                      14.0000000  504.00000  3500%     -    0s
     0     0          -    0        14.00000   14.00000  0.00%     -    0s

Explored 0 nodes (410 simplex iterations) in 0.04 seconds
Thread count was 4 (of 4 available processors)

Solution count 2: 14 2 

Optimal solution found (tolerance 1.00e-04)
Best objective 1.400000000000e+01, best bound 1.400000000000e+01, gap 0.0000%

Gurobi 8.1.1 (win64) logging started 11/23/19 13:30:22

Changed value of parameter LogFile to logs/miss/max/miss-07-30-1.log
   Prev: gurobi.log  Default: 
Changed value of parameter LogToConsole to 0
   Prev: 1  Min: 0  Max: 1  Default: 1
Changed value of parameter TimeLimit to 3600.0
   Prev: 1e+100  Min: 0.0  Max: 1e+100  Default: 1e+100
Optimize a model with 854 rows, 400 columns and 3192 nonzeros
Variable types: 0 continuous, 400 integer (392 binary)
Coefficient statistics:
  Matrix range     [1e+00, 5e+02]
  Objective range  [1e+00, 1e+00]
  Bounds range     [1e+00, 1e+00]
  RHS range        [1e+00, 5e+02]
Found heuristic solution: objective 1.0000000
Presolve time: 0.01s
Presolved: 854 rows, 400 columns, 3192 nonzeros
Variable types: 0 continuous, 400 integer (392 binary)

Root relaxation: objective 1.400000e+01, 108 iterations, 0.00 seconds

    Nodes    |    Current Node    |     Objective Bounds      |     Work
 Expl Unexpl |  Obj  Depth IntInf | Incumbent    BestBd   Gap | It/Node Time

     0     0   14.00000    0    8    1.00000   14.00000  1300%     -    0s
H    0     0                      10.0000000   14.00000  40.0%     -    0s
H    0     0                      11.0000000   14.00000  27.3%     -    0s
     0     0   14.00000    0   28   11.00000   14.00000  27.3%     -    0s
     0     0   14.00000    0   30   11.00000   14.00000  27.3%     -    0s
     0     0   14.00000    0    5   11.00000   14.00000  27.3%     -    0s
H    0     0                      12.0000000   14.00000  16.7%     -    0s
     0     0   14.00000    0    6   12.00000   14.00000  16.7%     -    0s
     0     0   14.00000    0    4   12.00000   14.00000  16.7%     -    0s
     0     0   14.00000    0    4   12.00000   14.00000  16.7%     -    0s
     0     0   14.00000    0   19   12.00000   14.00000  16.7%     -    0s
     0     0   14.00000    0    4   12.00000   14.00000  16.7%     -    0s
     0     0   14.00000    0    4   12.00000   14.00000  16.7%     -    0s
     0     2   14.00000    0    4   12.00000   14.00000  16.7%     -    0s
H 2041   193                      13.0000000   14.00000  7.69%   7.1    1s
H 2050   194                      14.0000000   14.00000  0.00%   7.1    1s

Cutting planes:
  Gomory: 1
  Flow cover: 1
  Zero half: 1

Explored 2050 nodes (17462 simplex iterations) in 1.54 seconds
Thread count was 4 (of 4 available processors)

Solution count 6: 14 13 12 ... 1

Optimal solution found (tolerance 1.00e-04)
Best objective 1.400000000000e+01, best bound 1.400000000000e+01, gap 0.0000%

Gurobi 8.1.1 (win64) logging started 11/23/19 13:30:24

Changed value of parameter LogFile to logs/miss/max/miss-07-30-1.log
   Prev: gurobi.log  Default: 
Changed value of parameter LogToConsole to 0
   Prev: 1  Min: 0  Max: 1  Default: 1
Changed value of parameter TimeLimit to 3600.0
   Prev: 1e+100  Min: 0.0  Max: 1e+100  Default: 1e+100
Optimize a model with 644 rows, 301 columns and 2394 nonzeros
Variable types: 0 continuous, 301 integer (294 binary)
Coefficient statistics:
  Matrix range     [1e+00, 5e+02]
  Objective range  [1e+00, 1e+00]
  Bounds range     [1e+00, 1e+00]
  RHS range        [1e+00, 5e+02]
Found heuristic solution: objective 1.0000000
Presolve time: 0.01s
Presolved: 644 rows, 301 columns, 2394 nonzeros
Variable types: 0 continuous, 301 integer (294 binary)

Root relaxation: objective 1.400000e+01, 103 iterations, 0.00 seconds

    Nodes    |    Current Node    |     Objective Bounds      |     Work
 Expl Unexpl |  Obj  Depth IntInf | Incumbent    BestBd   Gap | It/Node Time

     0     0   14.00000    0   16    1.00000   14.00000  1300%     -    0s
H    0     0                       6.0000000   14.00000   133%     -    0s
H    0     0                       8.0000000   14.00000  75.0%     -    0s
     0     0   14.00000    0   32    8.00000   14.00000  75.0%     -    0s
H    0     0                       9.0000000   14.00000  55.6%     -    0s
     0     0   14.00000    0   27    9.00000   14.00000  55.6%     -    0s
     0     0   14.00000    0    9    9.00000   14.00000  55.6%     -    0s
H    0     0                      10.0000000   14.00000  40.0%     -    0s
H    0     0                      11.0000000   14.00000  27.3%     -    0s
     0     0   14.00000    0    4   11.00000   14.00000  27.3%     -    0s
H    0     0                      12.0000000   14.00000  16.7%     -    0s
     0     0   14.00000    0   12   12.00000   14.00000  16.7%     -    0s
     0     0   14.00000    0   12   12.00000   14.00000  16.7%     -    0s
     0     0   14.00000    0    8   12.00000   14.00000  16.7%     -    0s
     0     0   14.00000    0    2   12.00000   14.00000  16.7%     -    0s
H    0     0                      13.0000000   14.00000  7.69%     -    0s
     0     0   14.00000    0    4   13.00000   14.00000  7.69%     -    0s
     0     0   14.00000    0    2   13.00000   14.00000  7.69%     -    0s
     0     0   14.00000    0    2   13.00000   14.00000  7.69%     -    0s
     0     2   14.00000    0    2   13.00000   14.00000  7.69%     -    0s
 17269   678   14.00000   83   22   13.00000   14.00000  7.69%  11.0    5s
 28002   927 infeasible   74        13.00000   14.00000  7.69%   9.7   10s
 52444   925   14.00000   26   23   13.00000   14.00000  7.69%   9.1   15s
 79286  1559 infeasible   47        13.00000   14.00000  7.69%   8.6   20s
 105415  1421 infeasible   53        13.00000   14.00000  7.69%   8.4   25s
 130658  1628   14.00000   47   18   13.00000   14.00000  7.69%   8.3   30s
H140947     0                      14.0000000   14.00000  0.00%   8.3   32s

Cutting planes:
  Gomory: 4
  Cover: 1
  MIR: 6
  Flow cover: 20
  Inf proof: 13
  Zero half: 2

Explored 140961 nodes (1166555 simplex iterations) in 32.04 seconds
Thread count was 4 (of 4 available processors)

Solution count 9: 14 13 12 ... 1

Optimal solution found (tolerance 1.00e-04)
Best objective 1.400000000000e+01, best bound 1.400000000000e+01, gap 0.0000%
